1493.92
0 1 2 3 4 94 93 83 92 91 82 81 90 89 88 97 87 96 95 5 6 7 8 9 10 98 11 12 13 22 31 30 21 20 19 28 27 26 35 34 33 32 41 42 43 44 45 36 37 38 29 39 40 49 48 47 46 25 24 16 15 14 23 17 18 78 86 77 79 80 70 71 62 61 60 52 51 59 50 53 63 54 55 56 57 58 67 66 65 64 72 73 74 75 84 85 76 69 68 
